* ENCODING=ISO-8859-1
NAME          CPLEX
ROWS
 N  obj1    
 G  c1      
 G  c2      
 G  c3      
 G  c4      
 G  c5      
 G  c6      
 G  c7      
 G  c8      
 G  c9      
 G  c10     
 G  c11     
 G  c12     
 G  c13     
 G  c14     
 G  c15     
 G  c16     
 G  c17     
 G  c18     
 G  c19     
 G  c20     
 G  c21     
 G  c22     
 G  c23     
 G  c24     
 G  c25     
 G  c26     
 G  c27     
 G  c28     
 G  c29     
 G  c30     
 G  c31     
 G  c32     
 G  c33     
 G  c34     
 G  c35     
 G  c36     
 G  c37     
 G  c38     
 G  c39     
 G  c40     
 G  c41     
 G  c42     
 G  c43     
 G  c44     
 G  c45     
 G  c46     
 G  c47     
 G  c48     
 G  c49     
 G  c50     
COLUMNS
    MARK0000  'MARKER'                 'INTORG'
    x1        obj1                            1
    x1        c14                           570
    x1        c15                           366
    x1        c16                           515
    x1        c23                           754
    x1        c35                           678
    x1        c50                           556
    x2        obj1                            1
    x2        c2                            262
    x2        c14                           114
    x2        c17                           942
    x2        c18                           352
    x2        c28                           831
    x2        c39                           103
    x2        c43                           473
    x2        c48                           196
    x2        c49                           425
    x3        obj1                            1
    x3        c11                           291
    x3        c23                           812
    x3        c32                           652
    x3        c39                           452
    x4        obj1                            1
    x4        c8                            641
    x4        c9                            122
    x4        c36                           340
    x5        obj1                            1
    x5        c4                            892
    x5        c12                           941
    x5        c16                           836
    x5        c26                           716
    x5        c28                           246
    x5        c49                           965
    x6        obj1                            1
    x6        c7                            848
    x6        c13                           756
    x6        c21                           577
    x6        c22                           528
    x6        c28                           366
    x6        c41                           732
    x7        obj1                            1
    x7        c1                            992
    x7        c3                            314
    x7        c8                            437
    x7        c23                           748
    x7        c30                           288
    x7        c37                           541
    x7        c43                           422
    x7        c49                           389
    x8        obj1                            1
    x8        c2                            710
    x8        c17                           233
    x8        c18                           830
    x8        c30                           912
    x8        c34                           142
    x8        c35                           919
    x8        c40                           725
    x8        c41                           844
    x8        c46                           116
    x8        c49                           915
    x9        obj1                            1
    x9        c5                            976
    x9        c9                            839
    x9        c13                           770
    x9        c31                           271
    x9        c34                           689
    x9        c37                           765
    x10       obj1                            1
    x10       c1                            381
    x10       c39                           663
    x10       c48                           287
    x11       obj1                            1
    x11       c4                            932
    x11       c50                           485
    x12       obj1                            1
    x12       c6                            517
    x12       c13                           945
    x12       c27                           236
    x12       c30                           440
    x13       obj1                            1
    x13       c29                           877
    x13       c36                           850
    x14       obj1                            1
    x14       c3                            684
    x14       c10                           506
    x14       c11                           775
    x14       c15                           254
    x14       c28                           501
    x15       obj1                            1
    x15       c24                           429
    x15       c48                           932
    x16       obj1                            1
    x16       c7                            599
    x16       c50                           629
    x17       obj1                            1
    x17       c9                            671
    x17       c14                           128
    x17       c17                           502
    x17       c21                           506
    x17       c31                           468
    x17       c43                           905
    x18       obj1                            1
    x18       c3                            236
    x18       c4                            781
    x18       c7                            439
    x18       c15                           883
    x18       c19                           504
    x18       c24                           243
    x18       c32                           230
    x18       c33                           505
    x18       c37                           341
    x19       obj1                            1
    x19       c14                           812
    x20       obj1                            1
    x20       c15                           692
    x21       obj1                            1
    x21       c19                           345
    x21       c20                           766
    x21       c41                           148
    x21       c42                           445
    x21       c49                           336
    x22       obj1                            1
    x22       c2                            123
    x22       c18                           886
    x22       c22                           332
    x22       c31                           253
    x22       c34                           567
    x23       obj1                            1
    x23       c6                            396
    x23       c17                           656
    x23       c22                           276
    x23       c27                           204
    x23       c36                           740
    x23       c47                           507
    x24       obj1                            1
    x24       c2                            568
    x24       c8                            378
    x24       c14                           721
    x24       c23                           448
    x24       c37                           714
    x24       c38                           880
    x24       c45                           373
    x25       obj1                            1
    x25       c11                           295
    x25       c24                           452
    x25       c33                           380
    x25       c38                           219
    x25       c40                           555
    x26       obj1                            1
    x26       c13                           212
    x26       c29                           867
    x26       c42                           624
    x26       c48                           335
    x26       c50                           574
    x27       obj1                            1
    x27       c16                           582
    x27       c21                           695
    x27       c30                           229
    x27       c37                           866
    x27       c38                           464
    x27       c45                           508
    x28       obj1                            1
    x28       c10                           446
    x28       c35                           906
    x28       c48                           296
    x29       obj1                            1
    x29       c4                            118
    x29       c18                           136
    x29       c21                           706
    x29       c26                           787
    x29       c27                           341
    x29       c41                           853
    x30       obj1                            1
    x30       c12                           304
    x30       c13                           870
    x30       c19                           864
    x30       c38                           615
    x30       c46                           887
    x31       obj1                            1
    x31       c1                            786
    x31       c6                            956
    x31       c9                            520
    x31       c15                           783
    x31       c20                           495
    x31       c25                           355
    x31       c39                           279
    x31       c43                           599
    x31       c45                           223
    x32       obj1                            1
    x32       c1                            780
    x32       c30                           688
    x32       c37                           347
    x32       c47                           456
    x33       obj1                            1
    x33       c2                            641
    x33       c3                            815
    x33       c17                           831
    x33       c21                           584
    x33       c39                           622
    x33       c41                           533
    x33       c43                           943
    x33       c44                           594
    x33       c46                           345
    x33       c50                           825
    x34       obj1                            1
    x34       c6                            563
    x34       c9                            746
    x34       c15                           914
    x34       c20                           901
    x34       c25                           932
    x34       c47                           480
    x35       obj1                            1
    x35       c3                            894
    x35       c5                            708
    x35       c8                            817
    x35       c25                           817
    x36       obj1                            1
    x36       c10                           593
    x36       c28                           982
    x36       c46                           519
    x36       c49                           249
    x36       c50                           358
    x37       obj1                            1
    x37       c1                            920
    x37       c2                            130
    x37       c4                            307
    x37       c30                           841
    x37       c38                           791
    x37       c40                           295
    x37       c42                           204
    x38       obj1                            1
    x38       c14                           931
    x38       c27                           464
    x38       c31                           501
    x38       c32                           661
    x38       c45                           625
    x39       obj1                            1
    x39       c2                            758
    x39       c12                           253
    x39       c31                           292
    x39       c40                           562
    x40       obj1                            1
    x40       c40                           252
    x40       c42                           931
    x40       c49                           124
    x41       obj1                            1
    x41       c19                           565
    x41       c23                           515
    x41       c27                           246
    x41       c35                           103
    x42       obj1                            1
    x42       c28                           100
    x42       c31                           811
    x42       c45                           769
    x42       c50                           980
    x43       obj1                            1
    x43       c5                            548
    x43       c18                           133
    x43       c25                           995
    x43       c28                           360
    x44       obj1                            1
    x44       c20                           630
    x44       c38                           787
    x44       c46                           967
    x45       obj1                            1
    x45       c24                           808
    x45       c33                           268
    x45       c36                           768
    x45       c38                           791
    x45       c44                           441
    x46       obj1                            1
    x46       c19                           486
    x46       c39                           413
    x46       c40                           566
    x47       obj1                            1
    x47       c4                            338
    x47       c26                           405
    x47       c29                           392
    x47       c43                           610
    x47       c44                           873
    x47       c48                           979
    x48       obj1                            1
    x48       c1                            224
    x48       c4                            948
    x48       c9                            383
    x48       c14                           369
    x48       c18                           493
    x48       c42                           584
    x48       c45                           202
    x49       obj1                            1
    x49       c32                           565
    x50       obj1                            1
    x50       c48                           281
    MARK0001  'MARKER'                 'INTEND'
RHS
    rhs       c1                           2042
    rhs       c2                           1596
    rhs       c3                           1472
    rhs       c4                           2158
    rhs       c5                           1116
    rhs       c6                           1216
    rhs       c7                            943
    rhs       c8                           1137
    rhs       c9                           1641
    rhs       c10                           773
    rhs       c11                           681
    rhs       c12                           749
    rhs       c13                          1777
    rhs       c14                          1823
    rhs       c15                          1946
    rhs       c16                           967
    rhs       c17                          1582
    rhs       c18                          1415
    rhs       c19                          1382
    rhs       c20                          1396
    rhs       c21                          1534
    rhs       c22                           568
    rhs       c23                          1639
    rhs       c24                           966
    rhs       c25                          1550
    rhs       c26                           954
    rhs       c27                           746
    rhs       c28                          1693
    rhs       c29                          1068
    rhs       c30                          1699
    rhs       c31                          1298
    rhs       c32                          1054
    rhs       c33                           577
    rhs       c34                           699
    rhs       c35                          1303
    rhs       c36                          1349
    rhs       c37                          1787
    rhs       c38                          2274
    rhs       c39                          1266
    rhs       c40                          1478
    rhs       c41                          1555
    rhs       c42                          1394
    rhs       c43                          1976
    rhs       c44                           954
    rhs       c45                          1350
    rhs       c46                          1417
    rhs       c47                           722
    rhs       c48                          1653
    rhs       c49                          1702
    rhs       c50                          2204
BOUNDS
 LI bnd       x1        0
 LI bnd       x2        0
 LI bnd       x3        0
 LI bnd       x4        0
 LI bnd       x5        0
 LI bnd       x6        0
 LI bnd       x7        0
 LI bnd       x8        0
 LI bnd       x9        0
 LI bnd       x10       0
 LI bnd       x11       0
 LI bnd       x12       0
 LI bnd       x13       0
 LI bnd       x14       0
 LI bnd       x15       0
 LI bnd       x16       0
 LI bnd       x17       0
 LI bnd       x18       0
 LI bnd       x19       0
 LI bnd       x20       0
 LI bnd       x21       0
 LI bnd       x22       0
 LI bnd       x23       0
 LI bnd       x24       0
 LI bnd       x25       0
 LI bnd       x26       0
 LI bnd       x27       0
 LI bnd       x28       0
 LI bnd       x29       0
 LI bnd       x30       0
 LI bnd       x31       0
 LI bnd       x32       0
 LI bnd       x33       0
 LI bnd       x34       0
 LI bnd       x35       0
 LI bnd       x36       0
 LI bnd       x37       0
 LI bnd       x38       0
 LI bnd       x39       0
 LI bnd       x40       0
 LI bnd       x41       0
 LI bnd       x42       0
 LI bnd       x43       0
 LI bnd       x44       0
 LI bnd       x45       0
 LI bnd       x46       0
 LI bnd       x47       0
 LI bnd       x48       0
 LI bnd       x49       0
 LI bnd       x50       0
ENDATA
